c Generated map
c Size: 9 * 9, weights in range: 1 to 10, walls: True, with ratio 0.05
c dim 3 of 7
c
p sp 81 129
c graph contains 81 nodes and 129 arcs
c
a 1 10 2
a 10 1 2
a 1 2 9
a 2 1 9
a 2 11 10
a 11 2 10
a 2 3 9
a 3 2 9
a 3 12 2
a 12 3 2
a 3 4 2
a 4 3 2
a 4 13 7
a 13 4 7
a 4 5 2
a 5 4 2
a 5 14 5
a 14 5 5
a 5 6 3
a 6 5 3
a 6 15 10
a 15 6 10
a 6 7 10
a 7 6 10
a 7 16 4
a 16 7 4
a 7 8 1
a 8 7 1
a 8 17 8
a 17 8 8
a 8 9 4
a 9 8 4
a 9 18 4
a 18 9 4
a 10 19 6
a 19 10 6
a 10 11 10
a 11 10 10
a 11 20 2
a 20 11 2
a 11 12 10
a 12 11 10
a 12 21 6
a 21 12 6
a 12 13 10
a 13 12 10
a 13 22 6
a 22 13 6
a 13 14 6
a 14 13 6
a 14 23 2
a 23 14 2
a 14 15 9
a 15 14 9
a 15 24 7
a 24 15 7
a 15 16 1
a 16 15 1
a 16 25 5
a 25 16 5
a 16 17 8
a 17 16 8
a 17 26 3
a 26 17 3
a 17 18 6
a 18 17 6
a 18 27 10
a 27 18 10
a 19 28 5
a 28 19 5
a 19 20 3
a 20 19 3
a 20 29 8
a 29 20 8
a 20 21 3
a 21 20 3
a 21 30 4
a 30 21 4
a 21 22 9
a 22 21 9
a 22 31 5
a 31 22 5
a 22 23 7
a 23 22 7
a 23 32 5
a 32 23 5
a 23 24 7
a 24 23 7
a 24 25 4
a 25 24 4
a 25 34 6
a 34 25 6
a 25 26 1
a 26 25 1
a 26 35 3
a 35 26 3
a 26 27 7
a 27 26 7
a 27 36 8
a 36 27 8
a 28 29 1
a 29 28 1
a 29 38 5
a 38 29 5
a 29 30 8
a 30 29 8
a 30 39 3
a 39 30 3
a 30 31 8
a 31 30 8
a 31 40 2
a 40 31 2
a 31 32 8
a 32 31 8
a 32 41 9
a 41 32 9
a 34 43 10
a 43 34 10
a 34 35 1
a 35 34 1
a 35 44 8
a 44 35 8
a 35 36 6
a 36 35 6
a 36 45 1
a 45 36 1
a 38 47 2
a 47 38 2
a 38 39 7
a 39 38 7
a 39 48 9
a 48 39 9
a 39 40 10
a 40 39 10
a 40 49 9
a 49 40 9
a 40 41 7
a 41 40 7
a 41 50 5
a 50 41 5
a 41 42 10
a 42 41 10
a 42 43 10
a 43 42 10
a 43 52 9
a 52 43 9
a 43 44 5
a 44 43 5
a 44 53 6
a 53 44 6
a 44 45 2
a 45 44 2
a 45 54 4
a 54 45 4
a 46 55 9
a 55 46 9
a 46 47 7
a 47 46 7
a 47 56 3
a 56 47 3
a 47 48 6
a 48 47 6
a 48 57 4
a 57 48 4
a 48 49 7
a 49 48 7
a 49 58 5
a 58 49 5
a 49 50 9
a 50 49 9
a 50 59 8
a 59 50 8
a 52 61 2
a 61 52 2
a 52 53 2
a 53 52 2
a 53 62 3
a 62 53 3
a 53 54 3
a 54 53 3
a 54 63 10
a 63 54 10
a 55 64 1
a 64 55 1
a 55 56 7
a 56 55 7
a 56 65 5
a 65 56 5
a 56 57 8
a 57 56 8
a 57 66 2
a 66 57 2
a 57 58 9
a 58 57 9
a 58 59 7
a 59 58 7
a 59 68 9
a 68 59 9
a 59 60 2
a 60 59 2
a 60 69 10
a 69 60 10
a 60 61 7
a 61 60 7
a 61 70 7
a 70 61 7
a 61 62 3
a 62 61 3
a 62 71 4
a 71 62 4
a 62 63 6
a 63 62 6
a 63 72 6
a 72 63 6
a 64 73 2
a 73 64 2
a 64 65 5
a 65 64 5
a 65 74 9
a 74 65 9
a 65 66 7
a 66 65 7
a 66 75 6
a 75 66 6
a 68 77 5
a 77 68 5
a 68 69 2
a 69 68 2
a 69 78 3
a 78 69 3
a 69 70 3
a 70 69 3
a 70 79 4
a 79 70 4
a 70 71 4
a 71 70 4
a 71 80 8
a 80 71 8
a 71 72 8
a 72 71 8
a 72 81 3
a 81 72 3
a 73 74 6
a 74 73 6
a 74 75 2
a 75 74 2
a 75 76 3
a 76 75 3
a 76 77 7
a 77 76 7
a 77 78 7
a 78 77 7
a 78 79 10
a 79 78 10
a 79 80 10
a 80 79 10
a 80 81 2
a 81 80 2
